211 300 235 202 226 247 215 210 209 240 235 206 208 246 221 246 249 237 238 225 243 224 231 236 248 217 220 248 218 244 205 231 239 240 208 239 211 248 249 220 211 207 201 219 202 222 240 225 208 227 250 225 225 204 235 247 222 204 218 214 222 223 220 235 213 202 223 224 250 221 218 235 228 244 203 204 215 243 230 248 244 203 222 243 208 231 239 230 235 206 218 232 230 238 216 217 240 240 215 213 235 233 248 238 201 201 242 216 218 246 239 237 250 235 229 232 216 218 236 200 224 203 232 203 216 223 245 205 237 209 244 221 217 241 233 218 216 250 208 209 245 247 246 218 232 224 250 248 242 235 222 241 213 229 218 229 201 213 208 238 222 201 233 239 217 241 206 233 240 215 242 208 211 211 227 217 236 200 214 201 210 211 242 248 240 210 226 215 223 208 202 219 210 209 208 227 250 239 234 239 203 200 222 240 211 249 231 221 223 220 223 207 231 